p cnf 268 1333
c p weight 12 1 0
c p weight -12 1 0
c p weight 13 0 0
c p weight -13 1 0
c p weight 16 0 0
c p weight -16 1 0
c p weight 17 1 0
c p weight -17 1 0
c p weight 20 0.99999999341620082748960385288228280842304229736328125 0
c p weight -20 1 0
c p weight 21 0.000114750156409794252750956877751065121628926135599613189697265625 0
c p weight -21 1 0
c p weight 24 0 0
c p weight -24 1 0
c p weight 25 1 0
c p weight -25 1 0
c p weight 28 -1 0
c p weight -28 1 0
c p weight 29 0 0
c p weight -29 1 0
c p weight 32 1 0
c p weight -32 1 0
c p weight 33 0 0
c p weight -33 1 0
c p weight 36 0 0
c p weight -36 1 0
c p weight 37 1 0
c p weight -37 1 0
c p weight 40 -0.75066076706900586312798395738354884088039398193359375 0
c p weight -40 1 0
c p weight 41 -0.66068783308259260156347636439022608101367950439453125 0
c p weight -41 1 0
c p weight 44 0 0
c p weight -44 1 0
c p weight 45 1 0
c p weight -45 1 0
c p weight 48 -1 0
c p weight -48 1 0
c p weight 49 0 0
c p weight -49 1 0
c p weight 52 1 0
c p weight -52 1 0
c p weight 53 0 0
c p weight -53 1 0
c p weight 56 0 0
c p weight -56 1 0
c p weight 57 1 0
c p weight -57 1 0
c p weight 60 -0.9999997634742612273583972637425176799297332763671875 0
c p weight -60 1 0
c p weight 61 -0.00068778733752219837517538625348834102624095976352691650390625 0
c p weight -61 1 0
c p weight 64 0 0
c p weight -64 1 0
c p weight 65 1 0
c p weight -65 1 0
c p weight 68 -1 0
c p weight -68 1 0
c p weight 69 0 0
c p weight -69 1 0
c p weight 72 1 0
c p weight -72 1 0
c p weight 73 0 0
c p weight -73 1 0
c p weight 76 0 0
c p weight -76 1 0
c p weight 77 1 0
c p weight -77 1 0
c p weight 80 0.42407775752533216628847867468721233308315277099609375 0
c p weight -80 1 0
c p weight 81 -0.90562578119899261874792273374623619019985198974609375 0
c p weight -81 1 0
c p weight 84 0 0
c p weight -84 1 0
c p weight 85 1 0
c p weight -85 1 0
c p weight 88 -1 0
c p weight -88 1 0
c p weight 89 0 0
c p weight -89 1 0
c p weight 101 1 0
c p weight -101 1 0
c p weight 102 0 0
c p weight -102 1 0
c p weight 105 0 0
c p weight -105 1 0
c p weight 106 1 0
c p weight -106 1 0
c p weight 109 -0.999999969940104538324021632433868944644927978515625 0
c p weight -109 1 0
c p weight 110 0.000245193372566893563919976362086572407861240208148956298828125 0
c p weight -110 1 0
c p weight 113 0 0
c p weight -113 1 0
c p weight 114 1 0
c p weight -114 1 0
c p weight 117 -1 0
c p weight -117 1 0
c p weight 118 0 0
c p weight -118 1 0
c p weight 121 1 0
c p weight -121 1 0
c p weight 122 0 0
c p weight -122 1 0
c p weight 125 0 0
c p weight -125 1 0
c p weight 126 1 0
c p weight -126 1 0
c p weight 129 -0.98774388449546945967227884466410614550113677978515625 0
c p weight -129 1 0
c p weight 130 0.1560833708048386669897666934048174880445003509521484375 0
c p weight -130 1 0
c p weight 133 0 0
c p weight -133 1 0
c p weight 134 1 0
c p weight -134 1 0
c p weight 137 -1 0
c p weight -137 1 0
c p weight 138 0 0
c p weight -138 1 0
c p weight 141 1 0
c p weight -141 1 0
c p weight 142 0 0
c p weight -142 1 0
c p weight 145 0 0
c p weight -145 1 0
c p weight 146 1 0
c p weight -146 1 0
c p weight 149 0.9725555841630180164969488032511435449123382568359375 0
c p weight -149 1 0
c p weight 150 0.2326706593305886972000706691687810234725475311279296875 0
c p weight -150 1 0
c p weight 153 0 0
c p weight -153 1 0
c p weight 154 1 0
c p weight -154 1 0
c p weight 157 -1 0
c p weight -157 1 0
c p weight 158 0 0
c p weight -158 1 0
c p weight 161 1 0
c p weight -161 1 0
c p weight 162 0 0
c p weight -162 1 0
c p weight 165 0 0
c p weight -165 1 0
c p weight 166 1 0
c p weight -166 1 0
c p weight 169 0.9057326326424128826175774520379491150379180908203125 0
c p weight -169 1 0
c p weight 170 -0.423849499429507503567293724699993617832660675048828125 0
c p weight -170 1 0
c p weight 173 0 0
c p weight -173 1 0
c p weight 174 1 0
c p weight -174 1 0
c p weight 177 -1 0
c p weight -177 1 0
c p weight 178 0 0
c p weight -178 1 0
c p weight 190 1 0
c p weight -190 1 0
c p weight 191 0 0
c p weight -191 1 0
c p weight 194 0 0
c p weight -194 1 0
c p weight 195 1 0
c p weight -195 1 0
c p weight 198 -0.99999999918888138328298964552232064306735992431640625 0
c p weight -198 1 0
c p weight 199 0.00004027700494580081585181685621677161179832182824611663818359375 0
c p weight -199 1 0
c p weight 202 0 0
c p weight -202 1 0
c p weight 203 1 0
c p weight -203 1 0
c p weight 206 -1 0
c p weight -206 1 0
c p weight 207 0 0
c p weight -207 1 0
c p weight 210 1 0
c p weight -210 1 0
c p weight 211 0 0
c p weight -211 1 0
c p weight 214 0 0
c p weight -214 1 0
c p weight 215 1 0
c p weight -215 1 0
c p weight 218 -0.741490656267568493120734274270944297313690185546875 0
c p weight -218 1 0
c p weight 219 0.670963193228876431106755262590013444423675537109375 0
c p weight -219 1 0
c p weight 222 0 0
c p weight -222 1 0
c p weight 223 1 0
c p weight -223 1 0
c p weight 226 -1 0
c p weight -226 1 0
c p weight 227 0 0
c p weight -227 1 0
c p weight 230 1 0
c p weight -230 1 0
c p weight 231 0 0
c p weight -231 1 0
c p weight 234 0 0
c p weight -234 1 0
c p weight 235 1 0
c p weight -235 1 0
c p weight 238 -0.98453380231138254430334200151264667510986328125 0
c p weight -238 1 0
c p weight 239 0.1751947262513671998984676747568300925195217132568359375 0
c p weight -239 1 0
c p weight 242 0 0
c p weight -242 1 0
c p weight 243 1 0
c p weight -243 1 0
c p weight 246 -1 0
c p weight -246 1 0
c p weight 247 0 0
c p weight -247 1 0
c p weight 250 1 0
c p weight -250 1 0
c p weight 251 0 0
c p weight -251 1 0
c p weight 254 0 0
c p weight -254 1 0
c p weight 255 1 0
c p weight -255 1 0
c p weight 258 -0.00000521941199674136500842765162833103431694325990974903106689453125 0
c p weight -258 1 0
c p weight 259 0.99999999998637889575547887943685054779052734375 0
c p weight -259 1 0
c p weight 262 0 0
c p weight -262 1 0
c p weight 263 1 0
c p weight -263 1 0
c p weight 266 -1 0
c p weight -266 1 0
c p weight 267 0 0
c p weight -267 1 0
c p weight 264 -1 0
c p weight -264 1 0
c p weight 268 0.5 0
268 0
-9 0
-7 0
-5 0
-3 0
-1 0
10 -9 1 0
10 -9 2 0
-10 9 1 0
-10 9 2 0
10 -11 -9 0
-10 -11 9 0
10 11 9 -1 -2 0
-10 11 -9 -1 -2 0
11 1 -2 0
-11 1 2 0
-12 1 0
11 -12 -2 0
-11 -12 2 0
11 12 -1 2 0
-11 12 -1 -2 0
-13 1 0
11 -13 2 0
-11 -13 -2 0
11 13 -1 -2 0
-11 13 -1 2 0
14 15 -10 0
14 -10 11 0
-14 15 10 0
-14 10 11 0
14 -10 -1 0
-14 10 -1 0
14 -15 10 1 -11 0
-14 -15 -10 1 -11 0
15 -1 11 0
-15 1 11 0
-16 11 0
15 -16 -1 0
-15 -16 1 0
15 16 1 -11 0
-15 16 -1 -11 0
-17 11 0
15 -17 1 0
-15 -17 -1 0
15 17 -1 -11 0
-15 17 1 -11 0
18 -14 15 0
18 -14 11 0
-18 14 15 0
-18 14 11 0
18 -19 -14 0
-18 -19 14 0
18 19 14 -15 -11 0
-18 19 -14 -15 -11 0
19 15 -11 0
-19 15 11 0
-20 15 0
19 -20 -11 0
-19 -20 11 0
19 20 -15 11 0
-19 20 -15 -11 0
-21 15 0
19 -21 11 0
-19 -21 -11 0
19 21 -15 -11 0
-19 21 -15 11 0
22 23 -18 0
22 -18 19 0
-22 23 18 0
-22 18 19 0
22 -18 -15 0
-22 18 -15 0
22 -23 18 15 -19 0
-22 -23 -18 15 -19 0
23 -15 19 0
-23 15 19 0
-24 19 0
23 -24 -15 0
-23 -24 15 0
23 24 15 -19 0
-23 24 -15 -19 0
-25 19 0
23 -25 15 0
-23 -25 -15 0
23 25 -15 -19 0
-23 25 15 -19 0
26 -22 23 0
26 -22 19 0
-26 22 23 0
-26 22 19 0
26 -27 -22 0
-26 -27 22 0
26 27 22 -23 -19 0
-26 27 -22 -23 -19 0
27 23 -19 0
-27 23 19 0
-28 23 0
27 -28 -19 0
-27 -28 19 0
27 28 -23 19 0
-27 28 -23 -19 0
-29 23 0
27 -29 19 0
-27 -29 -19 0
27 29 -23 -19 0
-27 29 -23 19 0
30 -26 3 0
30 -26 4 0
-30 26 3 0
-30 26 4 0
30 -31 -26 0
-30 -31 26 0
30 31 26 -3 -4 0
-30 31 -26 -3 -4 0
31 3 -4 0
-31 3 4 0
-32 3 0
31 -32 -4 0
-31 -32 4 0
31 32 -3 4 0
-31 32 -3 -4 0
-33 3 0
31 -33 4 0
-31 -33 -4 0
31 33 -3 -4 0
-31 33 -3 4 0
34 35 -30 0
34 -30 31 0
-34 35 30 0
-34 30 31 0
34 -30 -3 0
-34 30 -3 0
34 -35 30 3 -31 0
-34 -35 -30 3 -31 0
35 -3 31 0
-35 3 31 0
-36 31 0
35 -36 -3 0
-35 -36 3 0
35 36 3 -31 0
-35 36 -3 -31 0
-37 31 0
35 -37 3 0
-35 -37 -3 0
35 37 -3 -31 0
-35 37 3 -31 0
38 -34 35 0
38 -34 31 0
-38 34 35 0
-38 34 31 0
38 -39 -34 0
-38 -39 34 0
38 39 34 -35 -31 0
-38 39 -34 -35 -31 0
39 35 -31 0
-39 35 31 0
-40 35 0
39 -40 -31 0
-39 -40 31 0
39 40 -35 31 0
-39 40 -35 -31 0
-41 35 0
39 -41 31 0
-39 -41 -31 0
39 41 -35 -31 0
-39 41 -35 31 0
42 43 -38 0
42 -38 39 0
-42 43 38 0
-42 38 39 0
42 -38 -35 0
-42 38 -35 0
42 -43 38 35 -39 0
-42 -43 -38 35 -39 0
43 -35 39 0
-43 35 39 0
-44 39 0
43 -44 -35 0
-43 -44 35 0
43 44 35 -39 0
-43 44 -35 -39 0
-45 39 0
43 -45 35 0
-43 -45 -35 0
43 45 -35 -39 0
-43 45 35 -39 0
46 -42 43 0
46 -42 39 0
-46 42 43 0
-46 42 39 0
46 -47 -42 0
-46 -47 42 0
46 47 42 -43 -39 0
-46 47 -42 -43 -39 0
47 43 -39 0
-47 43 39 0
-48 43 0
47 -48 -39 0
-47 -48 39 0
47 48 -43 39 0
-47 48 -43 -39 0
-49 43 0
47 -49 39 0
-47 -49 -39 0
47 49 -43 -39 0
-47 49 -43 39 0
50 -46 5 0
50 -46 6 0
-50 46 5 0
-50 46 6 0
50 -51 -46 0
-50 -51 46 0
50 51 46 -5 -6 0
-50 51 -46 -5 -6 0
51 5 -6 0
-51 5 6 0
-52 5 0
51 -52 -6 0
-51 -52 6 0
51 52 -5 6 0
-51 52 -5 -6 0
-53 5 0
51 -53 6 0
-51 -53 -6 0
51 53 -5 -6 0
-51 53 -5 6 0
54 55 -50 0
54 -50 51 0
-54 55 50 0
-54 50 51 0
54 -50 -5 0
-54 50 -5 0
54 -55 50 5 -51 0
-54 -55 -50 5 -51 0
55 -5 51 0
-55 5 51 0
-56 51 0
55 -56 -5 0
-55 -56 5 0
55 56 5 -51 0
-55 56 -5 -51 0
-57 51 0
55 -57 5 0
-55 -57 -5 0
55 57 -5 -51 0
-55 57 5 -51 0
58 -54 55 0
58 -54 51 0
-58 54 55 0
-58 54 51 0
58 -59 -54 0
-58 -59 54 0
58 59 54 -55 -51 0
-58 59 -54 -55 -51 0
59 55 -51 0
-59 55 51 0
-60 55 0
59 -60 -51 0
-59 -60 51 0
59 60 -55 51 0
-59 60 -55 -51 0
-61 55 0
59 -61 51 0
-59 -61 -51 0
59 61 -55 -51 0
-59 61 -55 51 0
62 63 -58 0
62 -58 59 0
-62 63 58 0
-62 58 59 0
62 -58 -55 0
-62 58 -55 0
62 -63 58 55 -59 0
-62 -63 -58 55 -59 0
63 -55 59 0
-63 55 59 0
-64 59 0
63 -64 -55 0
-63 -64 55 0
63 64 55 -59 0
-63 64 -55 -59 0
-65 59 0
63 -65 55 0
-63 -65 -55 0
63 65 -55 -59 0
-63 65 55 -59 0
66 -62 63 0
66 -62 59 0
-66 62 63 0
-66 62 59 0
66 -67 -62 0
-66 -67 62 0
66 67 62 -63 -59 0
-66 67 -62 -63 -59 0
67 63 -59 0
-67 63 59 0
-68 63 0
67 -68 -59 0
-67 -68 59 0
67 68 -63 59 0
-67 68 -63 -59 0
-69 63 0
67 -69 59 0
-67 -69 -59 0
67 69 -63 -59 0
-67 69 -63 59 0
70 -66 7 0
70 -66 8 0
-70 66 7 0
-70 66 8 0
70 -71 -66 0
-70 -71 66 0
70 71 66 -7 -8 0
-70 71 -66 -7 -8 0
71 7 -8 0
-71 7 8 0
-72 7 0
71 -72 -8 0
-71 -72 8 0
71 72 -7 8 0
-71 72 -7 -8 0
-73 7 0
71 -73 8 0
-71 -73 -8 0
71 73 -7 -8 0
-71 73 -7 8 0
74 75 -70 0
74 -70 71 0
-74 75 70 0
-74 70 71 0
74 -70 -7 0
-74 70 -7 0
74 -75 70 7 -71 0
-74 -75 -70 7 -71 0
75 -7 71 0
-75 7 71 0
-76 71 0
75 -76 -7 0
-75 -76 7 0
75 76 7 -71 0
-75 76 -7 -71 0
-77 71 0
75 -77 7 0
-75 -77 -7 0
75 77 -7 -71 0
-75 77 7 -71 0
78 -74 75 0
78 -74 71 0
-78 74 75 0
-78 74 71 0
78 -79 -74 0
-78 -79 74 0
78 79 74 -75 -71 0
-78 79 -74 -75 -71 0
79 75 -71 0
-79 75 71 0
-80 75 0
79 -80 -71 0
-79 -80 71 0
79 80 -75 71 0
-79 80 -75 -71 0
-81 75 0
79 -81 71 0
-79 -81 -71 0
79 81 -75 -71 0
-79 81 -75 71 0
82 83 -78 0
82 -78 79 0
-82 83 78 0
-82 78 79 0
82 -78 -75 0
-82 78 -75 0
82 -83 78 75 -79 0
-82 -83 -78 75 -79 0
83 -75 79 0
-83 75 79 0
-84 79 0
83 -84 -75 0
-83 -84 75 0
83 84 75 -79 0
-83 84 -75 -79 0
-85 79 0
83 -85 75 0
-83 -85 -75 0
83 85 -75 -79 0
-83 85 75 -79 0
86 -82 83 0
86 -82 79 0
-86 82 83 0
-86 82 79 0
86 -87 -82 0
-86 -87 82 0
86 87 82 -83 -79 0
-86 87 -82 -83 -79 0
87 83 -79 0
-87 83 79 0
-88 83 0
87 -88 -79 0
-87 -88 79 0
87 88 -83 79 0
-87 88 -83 -79 0
-89 83 0
87 -89 79 0
-87 -89 -79 0
87 89 -83 -79 0
-87 89 -83 79 0
90 -86 63 0
90 -86 87 0
-90 86 63 0
-90 86 87 0
90 -86 83 -67 0
90 -86 -83 67 0
-90 86 83 -67 0
-90 86 -83 67 0
90 86 -63 83 67 -87 0
90 86 -63 -83 -67 -87 0
-90 -86 -63 83 67 -87 0
-90 -86 -63 -83 -67 -87 0
92 63 -83 0
92 -63 83 0
-92 63 83 0
-92 -63 -83 0
91 67 -87 0
91 -67 87 0
-91 67 87 0
-91 -67 -87 0
93 -90 43 0
93 -90 91 0
-93 90 43 0
-93 90 91 0
93 -90 63 -47 0
93 -90 -63 47 0
-93 90 63 -47 0
-93 90 -63 47 0
93 90 -43 63 47 -91 0
93 90 -43 -63 -47 -91 0
-93 -90 -43 63 47 -91 0
-93 -90 -43 -63 -47 -91 0
95 43 -63 0
95 -43 63 0
-95 43 63 0
-95 -43 -63 0
94 47 -91 0
94 -47 91 0
-94 47 91 0
-94 -47 -91 0
96 -93 23 0
96 -93 94 0
-96 93 23 0
-96 93 94 0
96 -93 43 -27 0
96 -93 -43 27 0
-96 93 43 -27 0
-96 93 -43 27 0
96 93 -23 43 27 -94 0
96 93 -23 -43 -27 -94 0
-96 -93 -23 43 27 -94 0
-96 -93 -23 -43 -27 -94 0
98 23 -43 0
98 -23 43 0
-98 23 43 0
-98 -23 -43 0
97 27 -94 0
97 -27 94 0
-97 27 94 0
-97 -27 -94 0
99 -96 23 0
99 -96 97 0
-99 96 23 0
-99 96 97 0
99 -100 -96 0
-99 -100 96 0
99 100 96 -23 -97 0
-99 100 -96 -23 -97 0
100 23 -97 0
-100 23 97 0
-101 23 0
100 -101 -97 0
-100 -101 97 0
100 101 -23 97 0
-100 101 -23 -97 0
-102 23 0
100 -102 97 0
-100 -102 -97 0
100 102 -23 -97 0
-100 102 -23 97 0
103 104 -99 0
103 -99 100 0
-103 104 99 0
-103 99 100 0
103 -99 -23 0
-103 99 -23 0
103 -104 99 23 -100 0
-103 -104 -99 23 -100 0
104 -23 100 0
-104 23 100 0
-105 100 0
104 -105 -23 0
-104 -105 23 0
104 105 23 -100 0
-104 105 -23 -100 0
-106 100 0
104 -106 23 0
-104 -106 -23 0
104 106 -23 -100 0
-104 106 23 -100 0
107 -103 104 0
107 -103 100 0
-107 103 104 0
-107 103 100 0
107 -108 -103 0
-107 -108 103 0
107 108 103 -104 -100 0
-107 108 -103 -104 -100 0
108 104 -100 0
-108 104 100 0
-109 104 0
108 -109 -100 0
-108 -109 100 0
108 109 -104 100 0
-108 109 -104 -100 0
-110 104 0
108 -110 100 0
-108 -110 -100 0
108 110 -104 -100 0
-108 110 -104 100 0
111 112 -107 0
111 -107 108 0
-111 112 107 0
-111 107 108 0
111 -107 -104 0
-111 107 -104 0
111 -112 107 104 -108 0
-111 -112 -107 104 -108 0
112 -104 108 0
-112 104 108 0
-113 108 0
112 -113 -104 0
-112 -113 104 0
112 113 104 -108 0
-112 113 -104 -108 0
-114 108 0
112 -114 104 0
-112 -114 -104 0
112 114 -104 -108 0
-112 114 104 -108 0
115 -111 112 0
115 -111 108 0
-115 111 112 0
-115 111 108 0
115 -116 -111 0
-115 -116 111 0
115 116 111 -112 -108 0
-115 116 -111 -112 -108 0
116 112 -108 0
-116 112 108 0
-117 112 0
116 -117 -108 0
-116 -117 108 0
116 117 -112 108 0
-116 117 -112 -108 0
-118 112 0
116 -118 108 0
-116 -118 -108 0
116 118 -112 -108 0
-116 118 -112 108 0
119 -115 98 0
119 -115 94 0
-119 115 98 0
-119 115 94 0
119 -120 -115 0
-119 -120 115 0
119 120 115 -98 -94 0
-119 120 -115 -98 -94 0
120 98 -94 0
-120 98 94 0
-121 98 0
120 -121 -94 0
-120 -121 94 0
120 121 -98 94 0
-120 121 -98 -94 0
-122 98 0
120 -122 94 0
-120 -122 -94 0
120 122 -98 -94 0
-120 122 -98 94 0
123 124 -119 0
123 -119 120 0
-123 124 119 0
-123 119 120 0
123 -119 -98 0
-123 119 -98 0
123 -124 119 98 -120 0
-123 -124 -119 98 -120 0
124 -98 120 0
-124 98 120 0
-125 120 0
124 -125 -98 0
-124 -125 98 0
124 125 98 -120 0
-124 125 -98 -120 0
-126 120 0
124 -126 98 0
-124 -126 -98 0
124 126 -98 -120 0
-124 126 98 -120 0
127 -123 124 0
127 -123 120 0
-127 123 124 0
-127 123 120 0
127 -128 -123 0
-127 -128 123 0
127 128 123 -124 -120 0
-127 128 -123 -124 -120 0
128 124 -120 0
-128 124 120 0
-129 124 0
128 -129 -120 0
-128 -129 120 0
128 129 -124 120 0
-128 129 -124 -120 0
-130 124 0
128 -130 120 0
-128 -130 -120 0
128 130 -124 -120 0
-128 130 -124 120 0
131 132 -127 0
131 -127 128 0
-131 132 127 0
-131 127 128 0
131 -127 -124 0
-131 127 -124 0
131 -132 127 124 -128 0
-131 -132 -127 124 -128 0
132 -124 128 0
-132 124 128 0
-133 128 0
132 -133 -124 0
-132 -133 124 0
132 133 124 -128 0
-132 133 -124 -128 0
-134 128 0
132 -134 124 0
-132 -134 -124 0
132 134 -124 -128 0
-132 134 124 -128 0
135 -131 132 0
135 -131 128 0
-135 131 132 0
-135 131 128 0
135 -136 -131 0
-135 -136 131 0
135 136 131 -132 -128 0
-135 136 -131 -132 -128 0
136 132 -128 0
-136 132 128 0
-137 132 0
136 -137 -128 0
-136 -137 128 0
136 137 -132 128 0
-136 137 -132 -128 0
-138 132 0
136 -138 128 0
-136 -138 -128 0
136 138 -132 -128 0
-136 138 -132 128 0
139 -135 95 0
139 -135 91 0
-139 135 95 0
-139 135 91 0
139 -140 -135 0
-139 -140 135 0
139 140 135 -95 -91 0
-139 140 -135 -95 -91 0
140 95 -91 0
-140 95 91 0
-141 95 0
140 -141 -91 0
-140 -141 91 0
140 141 -95 91 0
-140 141 -95 -91 0
-142 95 0
140 -142 91 0
-140 -142 -91 0
140 142 -95 -91 0
-140 142 -95 91 0
143 144 -139 0
143 -139 140 0
-143 144 139 0
-143 139 140 0
143 -139 -95 0
-143 139 -95 0
143 -144 139 95 -140 0
-143 -144 -139 95 -140 0
144 -95 140 0
-144 95 140 0
-145 140 0
144 -145 -95 0
-144 -145 95 0
144 145 95 -140 0
-144 145 -95 -140 0
-146 140 0
144 -146 95 0
-144 -146 -95 0
144 146 -95 -140 0
-144 146 95 -140 0
147 -143 144 0
147 -143 140 0
-147 143 144 0
-147 143 140 0
147 -148 -143 0
-147 -148 143 0
147 148 143 -144 -140 0
-147 148 -143 -144 -140 0
148 144 -140 0
-148 144 140 0
-149 144 0
148 -149 -140 0
-148 -149 140 0
148 149 -144 140 0
-148 149 -144 -140 0
-150 144 0
148 -150 140 0
-148 -150 -140 0
148 150 -144 -140 0
-148 150 -144 140 0
151 152 -147 0
151 -147 148 0
-151 152 147 0
-151 147 148 0
151 -147 -144 0
-151 147 -144 0
151 -152 147 144 -148 0
-151 -152 -147 144 -148 0
152 -144 148 0
-152 144 148 0
-153 148 0
152 -153 -144 0
-152 -153 144 0
152 153 144 -148 0
-152 153 -144 -148 0
-154 148 0
152 -154 144 0
-152 -154 -144 0
152 154 -144 -148 0
-152 154 144 -148 0
155 -151 152 0
155 -151 148 0
-155 151 152 0
-155 151 148 0
155 -156 -151 0
-155 -156 151 0
155 156 151 -152 -148 0
-155 156 -151 -152 -148 0
156 152 -148 0
-156 152 148 0
-157 152 0
156 -157 -148 0
-156 -157 148 0
156 157 -152 148 0
-156 157 -152 -148 0
-158 152 0
156 -158 148 0
-156 -158 -148 0
156 158 -152 -148 0
-156 158 -152 148 0
159 -155 92 0
159 -155 87 0
-159 155 92 0
-159 155 87 0
159 -160 -155 0
-159 -160 155 0
159 160 155 -92 -87 0
-159 160 -155 -92 -87 0
160 92 -87 0
-160 92 87 0
-161 92 0
160 -161 -87 0
-160 -161 87 0
160 161 -92 87 0
-160 161 -92 -87 0
-162 92 0
160 -162 87 0
-160 -162 -87 0
160 162 -92 -87 0
-160 162 -92 87 0
163 164 -159 0
163 -159 160 0
-163 164 159 0
-163 159 160 0
163 -159 -92 0
-163 159 -92 0
163 -164 159 92 -160 0
-163 -164 -159 92 -160 0
164 -92 160 0
-164 92 160 0
-165 160 0
164 -165 -92 0
-164 -165 92 0
164 165 92 -160 0
-164 165 -92 -160 0
-166 160 0
164 -166 92 0
-164 -166 -92 0
164 166 -92 -160 0
-164 166 92 -160 0
167 -163 164 0
167 -163 160 0
-167 163 164 0
-167 163 160 0
167 -168 -163 0
-167 -168 163 0
167 168 163 -164 -160 0
-167 168 -163 -164 -160 0
168 164 -160 0
-168 164 160 0
-169 164 0
168 -169 -160 0
-168 -169 160 0
168 169 -164 160 0
-168 169 -164 -160 0
-170 164 0
168 -170 160 0
-168 -170 -160 0
168 170 -164 -160 0
-168 170 -164 160 0
171 172 -167 0
171 -167 168 0
-171 172 167 0
-171 167 168 0
171 -167 -164 0
-171 167 -164 0
171 -172 167 164 -168 0
-171 -172 -167 164 -168 0
172 -164 168 0
-172 164 168 0
-173 168 0
172 -173 -164 0
-172 -173 164 0
172 173 164 -168 0
-172 173 -164 -168 0
-174 168 0
172 -174 164 0
-172 -174 -164 0
172 174 -164 -168 0
-172 174 164 -168 0
175 -171 172 0
175 -171 168 0
-175 171 172 0
-175 171 168 0
175 -176 -171 0
-175 -176 171 0
175 176 171 -172 -168 0
-175 176 -171 -172 -168 0
176 172 -168 0
-176 172 168 0
-177 172 0
176 -177 -168 0
-176 -177 168 0
176 177 -172 168 0
-176 177 -172 -168 0
-178 172 0
176 -178 168 0
-176 -178 -168 0
176 178 -172 -168 0
-176 178 -172 168 0
179 -175 152 0
179 -175 176 0
-179 175 152 0
-179 175 176 0
179 -175 172 -156 0
179 -175 -172 156 0
-179 175 172 -156 0
-179 175 -172 156 0
179 175 -152 172 156 -176 0
179 175 -152 -172 -156 -176 0
-179 -175 -152 172 156 -176 0
-179 -175 -152 -172 -156 -176 0
181 152 -172 0
181 -152 172 0
-181 152 172 0
-181 -152 -172 0
180 156 -176 0
180 -156 176 0
-180 156 176 0
-180 -156 -176 0
182 -179 132 0
182 -179 180 0
-182 179 132 0
-182 179 180 0
182 -179 152 -136 0
182 -179 -152 136 0
-182 179 152 -136 0
-182 179 -152 136 0
182 179 -132 152 136 -180 0
182 179 -132 -152 -136 -180 0
-182 -179 -132 152 136 -180 0
-182 -179 -132 -152 -136 -180 0
184 132 -152 0
184 -132 152 0
-184 132 152 0
-184 -132 -152 0
183 136 -180 0
183 -136 180 0
-183 136 180 0
-183 -136 -180 0
185 -182 112 0
185 -182 183 0
-185 182 112 0
-185 182 183 0
185 -182 132 -116 0
185 -182 -132 116 0
-185 182 132 -116 0
-185 182 -132 116 0
185 182 -112 132 116 -183 0
185 182 -112 -132 -116 -183 0
-185 -182 -112 132 116 -183 0
-185 -182 -112 -132 -116 -183 0
187 112 -132 0
187 -112 132 0
-187 112 132 0
-187 -112 -132 0
186 116 -183 0
186 -116 183 0
-186 116 183 0
-186 -116 -183 0
188 -185 112 0
188 -185 186 0
-188 185 112 0
-188 185 186 0
188 -189 -185 0
-188 -189 185 0
188 189 185 -112 -186 0
-188 189 -185 -112 -186 0
189 112 -186 0
-189 112 186 0
-190 112 0
189 -190 -186 0
-189 -190 186 0
189 190 -112 186 0
-189 190 -112 -186 0
-191 112 0
189 -191 186 0
-189 -191 -186 0
189 191 -112 -186 0
-189 191 -112 186 0
192 193 -188 0
192 -188 189 0
-192 193 188 0
-192 188 189 0
192 -188 -112 0
-192 188 -112 0
192 -193 188 112 -189 0
-192 -193 -188 112 -189 0
193 -112 189 0
-193 112 189 0
-194 189 0
193 -194 -112 0
-193 -194 112 0
193 194 112 -189 0
-193 194 -112 -189 0
-195 189 0
193 -195 112 0
-193 -195 -112 0
193 195 -112 -189 0
-193 195 112 -189 0
196 -192 193 0
196 -192 189 0
-196 192 193 0
-196 192 189 0
196 -197 -192 0
-196 -197 192 0
196 197 192 -193 -189 0
-196 197 -192 -193 -189 0
197 193 -189 0
-197 193 189 0
-198 193 0
197 -198 -189 0
-197 -198 189 0
197 198 -193 189 0
-197 198 -193 -189 0
-199 193 0
197 -199 189 0
-197 -199 -189 0
197 199 -193 -189 0
-197 199 -193 189 0
200 201 -196 0
200 -196 197 0
-200 201 196 0
-200 196 197 0
200 -196 -193 0
-200 196 -193 0
200 -201 196 193 -197 0
-200 -201 -196 193 -197 0
201 -193 197 0
-201 193 197 0
-202 197 0
201 -202 -193 0
-201 -202 193 0
201 202 193 -197 0
-201 202 -193 -197 0
-203 197 0
201 -203 193 0
-201 -203 -193 0
201 203 -193 -197 0
-201 203 193 -197 0
204 -200 201 0
204 -200 197 0
-204 200 201 0
-204 200 197 0
204 -205 -200 0
-204 -205 200 0
204 205 200 -201 -197 0
-204 205 -200 -201 -197 0
205 201 -197 0
-205 201 197 0
-206 201 0
205 -206 -197 0
-205 -206 197 0
205 206 -201 197 0
-205 206 -201 -197 0
-207 201 0
205 -207 197 0
-205 -207 -197 0
205 207 -201 -197 0
-205 207 -201 197 0
208 -204 187 0
208 -204 183 0
-208 204 187 0
-208 204 183 0
208 -209 -204 0
-208 -209 204 0
208 209 204 -187 -183 0
-208 209 -204 -187 -183 0
209 187 -183 0
-209 187 183 0
-210 187 0
209 -210 -183 0
-209 -210 183 0
209 210 -187 183 0
-209 210 -187 -183 0
-211 187 0
209 -211 183 0
-209 -211 -183 0
209 211 -187 -183 0
-209 211 -187 183 0
212 213 -208 0
212 -208 209 0
-212 213 208 0
-212 208 209 0
212 -208 -187 0
-212 208 -187 0
212 -213 208 187 -209 0
-212 -213 -208 187 -209 0
213 -187 209 0
-213 187 209 0
-214 209 0
213 -214 -187 0
-213 -214 187 0
213 214 187 -209 0
-213 214 -187 -209 0
-215 209 0
213 -215 187 0
-213 -215 -187 0
213 215 -187 -209 0
-213 215 187 -209 0
216 -212 213 0
216 -212 209 0
-216 212 213 0
-216 212 209 0
216 -217 -212 0
-216 -217 212 0
216 217 212 -213 -209 0
-216 217 -212 -213 -209 0
217 213 -209 0
-217 213 209 0
-218 213 0
217 -218 -209 0
-217 -218 209 0
217 218 -213 209 0
-217 218 -213 -209 0
-219 213 0
217 -219 209 0
-217 -219 -209 0
217 219 -213 -209 0
-217 219 -213 209 0
220 221 -216 0
220 -216 217 0
-220 221 216 0
-220 216 217 0
220 -216 -213 0
-220 216 -213 0
220 -221 216 213 -217 0
-220 -221 -216 213 -217 0
221 -213 217 0
-221 213 217 0
-222 217 0
221 -222 -213 0
-221 -222 213 0
221 222 213 -217 0
-221 222 -213 -217 0
-223 217 0
221 -223 213 0
-221 -223 -213 0
221 223 -213 -217 0
-221 223 213 -217 0
224 -220 221 0
224 -220 217 0
-224 220 221 0
-224 220 217 0
224 -225 -220 0
-224 -225 220 0
224 225 220 -221 -217 0
-224 225 -220 -221 -217 0
225 221 -217 0
-225 221 217 0
-226 221 0
225 -226 -217 0
-225 -226 217 0
225 226 -221 217 0
-225 226 -221 -217 0
-227 221 0
225 -227 217 0
-225 -227 -217 0
225 227 -221 -217 0
-225 227 -221 217 0
228 -224 184 0
228 -224 180 0
-228 224 184 0
-228 224 180 0
228 -229 -224 0
-228 -229 224 0
228 229 224 -184 -180 0
-228 229 -224 -184 -180 0
229 184 -180 0
-229 184 180 0
-230 184 0
229 -230 -180 0
-229 -230 180 0
229 230 -184 180 0
-229 230 -184 -180 0
-231 184 0
229 -231 180 0
-229 -231 -180 0
229 231 -184 -180 0
-229 231 -184 180 0
232 233 -228 0
232 -228 229 0
-232 233 228 0
-232 228 229 0
232 -228 -184 0
-232 228 -184 0
232 -233 228 184 -229 0
-232 -233 -228 184 -229 0
233 -184 229 0
-233 184 229 0
-234 229 0
233 -234 -184 0
-233 -234 184 0
233 234 184 -229 0
-233 234 -184 -229 0
-235 229 0
233 -235 184 0
-233 -235 -184 0
233 235 -184 -229 0
-233 235 184 -229 0
236 -232 233 0
236 -232 229 0
-236 232 233 0
-236 232 229 0
236 -237 -232 0
-236 -237 232 0
236 237 232 -233 -229 0
-236 237 -232 -233 -229 0
237 233 -229 0
-237 233 229 0
-238 233 0
237 -238 -229 0
-237 -238 229 0
237 238 -233 229 0
-237 238 -233 -229 0
-239 233 0
237 -239 229 0
-237 -239 -229 0
237 239 -233 -229 0
-237 239 -233 229 0
240 241 -236 0
240 -236 237 0
-240 241 236 0
-240 236 237 0
240 -236 -233 0
-240 236 -233 0
240 -241 236 233 -237 0
-240 -241 -236 233 -237 0
241 -233 237 0
-241 233 237 0
-242 237 0
241 -242 -233 0
-241 -242 233 0
241 242 233 -237 0
-241 242 -233 -237 0
-243 237 0
241 -243 233 0
-241 -243 -233 0
241 243 -233 -237 0
-241 243 233 -237 0
244 -240 241 0
244 -240 237 0
-244 240 241 0
-244 240 237 0
244 -245 -240 0
-244 -245 240 0
244 245 240 -241 -237 0
-244 245 -240 -241 -237 0
245 241 -237 0
-245 241 237 0
-246 241 0
245 -246 -237 0
-245 -246 237 0
245 246 -241 237 0
-245 246 -241 -237 0
-247 241 0
245 -247 237 0
-245 -247 -237 0
245 247 -241 -237 0
-245 247 -241 237 0
248 -244 181 0
248 -244 176 0
-248 244 181 0
-248 244 176 0
248 -249 -244 0
-248 -249 244 0
248 249 244 -181 -176 0
-248 249 -244 -181 -176 0
249 181 -176 0
-249 181 176 0
-250 181 0
249 -250 -176 0
-249 -250 176 0
249 250 -181 176 0
-249 250 -181 -176 0
-251 181 0
249 -251 176 0
-249 -251 -176 0
249 251 -181 -176 0
-249 251 -181 176 0
252 253 -248 0
252 -248 249 0
-252 253 248 0
-252 248 249 0
252 -248 -181 0
-252 248 -181 0
252 -253 248 181 -249 0
-252 -253 -248 181 -249 0
253 -181 249 0
-253 181 249 0
-254 249 0
253 -254 -181 0
-253 -254 181 0
253 254 181 -249 0
-253 254 -181 -249 0
-255 249 0
253 -255 181 0
-253 -255 -181 0
253 255 -181 -249 0
-253 255 181 -249 0
256 -252 253 0
256 -252 249 0
-256 252 253 0
-256 252 249 0
256 -257 -252 0
-256 -257 252 0
256 257 252 -253 -249 0
-256 257 -252 -253 -249 0
257 253 -249 0
-257 253 249 0
-258 253 0
257 -258 -249 0
-257 -258 249 0
257 258 -253 249 0
-257 258 -253 -249 0
-259 253 0
257 -259 249 0
-257 -259 -249 0
257 259 -253 -249 0
-257 259 -253 249 0
260 261 -256 0
260 -256 257 0
-260 261 256 0
-260 256 257 0
260 -256 -253 0
-260 256 -253 0
260 -261 256 253 -257 0
-260 -261 -256 253 -257 0
261 -253 257 0
-261 253 257 0
-262 257 0
261 -262 -253 0
-261 -262 253 0
261 262 253 -257 0
-261 262 -253 -257 0
-263 257 0
261 -263 253 0
-261 -263 -253 0
261 263 -253 -257 0
-261 263 253 -257 0
264 -260 261 0
264 -260 257 0
-264 260 261 0
-264 260 257 0
264 -265 -260 0
-264 -265 260 0
264 265 260 -261 -257 0
-264 265 -260 -261 -257 0
265 261 -257 0
-265 261 257 0
-266 261 0
265 -266 -257 0
-265 -266 257 0
265 266 -261 257 0
-265 266 -261 -257 0
-267 261 0
265 -267 257 0
-265 -267 -257 0
265 267 -261 -257 0
-265 267 -261 257 0
-201 0
-221 0
-225 0
-241 0
-245 0
-261 0
-265 0
